(define-fun inv2 ((x!0 Int)
 (x!1 Int)
 (x!2 Int)
 (x!3 Int)
 (x!4 Int)
 (x!5 Int)
 (x!6 Int)) Bool
  (let ((a!1 (not (<= (+ x!3 (* (- 1) x!4)) 99)))
        (a!2 (not (>= (+ x!0 (* (- 1) x!4)) 1)))
        (a!3 (not (<= (+ x!0 (* (- 1) x!1) (* (- 1) x!3)) (- 1))))
        (a!4 (not (<= (+ x!0 (* (- 1) x!4)) 0)))
        (a!5 (not (>= (+ (* 2 x!0) x!1 x!3 (* (- 3) x!4)) 4)))
        (a!6 (not (= (+ x!0 (* (- 1) x!3)) (- 1))))
        (a!7 (not (<= (+ x!0 (* (- 1) x!1) (* 2 x!3) (* (- 3) x!4)) 97)))
        (a!8 (not (<= (+ x!0 (* (- 1) x!3)) (- 2))))
        (a!9 (not (= (+ x!5 (* (- 1) x!6)) 0)))
        (a!10 (not (>= (+ (* 2 x!0) x!1 (* (- 2) x!3)) 1))))
    (and (or (not (= x!0 x!3)) (not (>= x!1 1)))
         (not (= x!2 0))
         a!1
         (or (not (>= x!2 1)) a!2 a!3)
         (or a!4 (not (<= x!2 (- 1))) a!5)
         (or (not (<= x!2 0)) (not (= x!5 x!6)) a!2 a!6 (not (>= x!1 3)))
         a!7
         (or (not (<= x!2 0)) a!8 a!2 a!9 a!10))))

